min:  1x99;
 
1x1 = 2;
 
1x83 + 1x84 = 30;
 
1x1 + -10000x97 >= -9998;
 
1x83 + 1x84 + -10000x98 >= -9970;
 
10000x97 >= 2;
 
10000x98 >= 30;
 
1x97 >= 0;
 
1x98 >= 0;
 
1x97 <= 1;
 
1x98 <= 1;
 
1x1 + -1x99 <= 0;
 
-1x99 <= 0;
 
-1x99 <= 0;
 
-1x99 <= 0;
 
-1x99 <= 0;
 
-1x99 <= 0;
 
-1x99 <= 0;
 
-1x99 <= 0;
 
-1x99 <= 0;
 
-1x99 <= 0;
 
-1x99 <= 0;
 
-1x99 <= 0;
 
-1x99 <= 0;
 
-1x99 <= 0;
 
-1x99 <= 0;
 
-1x99 <= 0;
 
-1x99 <= 0;
 
-1x99 <= 0;
 
-1x99 <= 0;
 
-1x99 <= 0;
 
-1x99 <= 0;
 
-1x99 <= 0;
 
-1x99 <= 0;
 
-1x99 <= 0;
 
-1x99 <= 0;
 
-1x99 <= 0;
 
-1x99 <= 0;
 
-1x99 <= 0;
 
-1x99 <= 0;
 
-1x99 <= 0;
 
-1x99 <= 0;
 
-1x99 <= 0;
 
-1x99 <= 0;
 
-1x99 <= 0;
 
1x83 + -1x99 <= 0;
 
1x84 + -1x99 <= 0;
 
-1x99 <= 0;
 
-1x99 <= 0;
 
-1x99 <= 0;
 
-1x99 <= 0;
 
-1x99 <= 0;
 
-1x99 <= 0;
 
-1x99 <= 0;
 
-1x99 <= 0;
 
-1x99 <= 0;
 
-1x99 <= 0;
 
-1x99 <= 0;
 
-1x99 <= 0;
 
int x1;
 
int x2;
 
int x3;
 
int x4;
 
int x5;
 
int x6;
 
int x7;
 
int x8;
 
int x9;
 
int x10;
 
int x11;
 
int x12;
 
int x13;
 
int x14;
 
int x15;
 
int x16;
 
int x17;
 
int x18;
 
int x19;
 
int x20;
 
int x21;
 
int x22;
 
int x23;
 
int x24;
 
int x25;
 
int x26;
 
int x27;
 
int x28;
 
int x29;
 
int x30;
 
int x31;
 
int x32;
 
int x33;
 
int x34;
 
int x35;
 
int x36;
 
int x37;
 
int x38;
 
int x39;
 
int x40;
 
int x41;
 
int x42;
 
int x43;
 
int x44;
 
int x45;
 
int x46;
 
int x47;
 
int x48;
 
int x49;
 
int x50;
 
int x51;
 
int x52;
 
int x53;
 
int x54;
 
int x55;
 
int x56;
 
int x57;
 
int x58;
 
int x59;
 
int x60;
 
int x61;
 
int x62;
 
int x63;
 
int x64;
 
int x65;
 
int x66;
 
int x67;
 
int x68;
 
int x69;
 
int x70;
 
int x71;
 
int x72;
 
int x73;
 
int x74;
 
int x75;
 
int x76;
 
int x77;
 
int x78;
 
int x79;
 
int x80;
 
int x81;
 
int x82;
 
int x83;
 
int x84;
 
int x85;
 
int x86;
 
int x87;
 
int x88;
 
int x89;
 
int x90;
 
int x91;
 
int x92;
 
int x93;
 
int x94;
 
int x95;
 
int x96;
 
int x97;
 
int x98;
 
int x99;
 
